c Maximum weighted independent set instances generated from exactcolors.
c scalef: 58040098 .
c An independent set of value > 58040098 defines an improving stable sets for coloring.
p edge 37 72
e 1 2
e 1 4
e 1 11
e 1 13
e 2 3
e 2 10
e 2 12
e 3 6
e 3 11
e 3 15
e 4 5
e 4 10
e 4 14
e 5 8
e 5 13
e 5 17
e 6 7
e 6 12
e 6 16
e 7 9
e 7 15
e 7 18
e 8 9
e 8 14
e 8 18
e 9 16
e 9 17
e 10 20
e 10 22
e 11 19
e 11 21
e 12 20
e 12 24
e 13 19
e 13 23
e 14 22
e 14 26
e 15 21
e 15 25
e 16 24
e 16 27
e 17 23
e 17 27
e 18 25
e 18 26
e 19 29
e 19 31
e 20 28
e 20 30
e 21 29
e 21 33
e 22 28
e 22 32
e 23 31
e 23 35
e 24 30
e 24 34
e 25 33
e 25 36
e 26 32
e 26 36
e 27 34
e 27 35
e 28 37
e 29 37
e 30 37
e 31 37
e 32 37
e 33 37
e 34 37
e 35 37
e 36 37
n 1 4915319
n 2 4915319
n 3 4915319
n 4 4915319
n 5 4915319
n 6 4915319
n 7 4915319
n 8 4915319
n 9 4915319
n 10 3932255
n 11 3932255
n 12 3932255
n 13 3932255
n 14 3932255
n 15 3932255
n 16 3932255
n 17 3932255
n 18 3932255
n 19 3145804
n 20 3145804
n 21 3145804
n 22 3145804
n 23 3145804
n 24 3145804
n 25 3145804
n 26 3145804
n 27 3145804
n 28 2516643
n 29 2516643
n 30 2516643
n 31 2516643
n 32 2516643
n 33 2516643
n 34 2516643
n 35 2516643
n 36 2516643
n 37 10066575
